18570
18570
18570
18576
18576
18576
18576
18576
18576
18576
18576
18576
18576
18576
18576
18576
18576
18576
18576
18576
18576
18576
18576
18576
18576
18576
18576
18576
18576
18576
18576
18576
18576
18576
18576
18576
18576
18576
18576
18576
18576
18576
18576
18576
18576
18576
18576
18576
18576
18576
18576
18576
18576
18576
18576
18576
18576
18576
18576
18576
18576
18576
18576
18576
18576
18576
18576
18576
18576
18576
18576
18576
18576
18576
18576
18576
18576
18576
18576
18576
18576
18576
18576
18576
18576
18576
18576
18576
18576
18576
18576
18576
18576
18576
18576
18576
18576
18576
18576
